NAME : traveling-santa-2018-prime-paths.29176.tour
COMMENT : Length = 29176
COMMENT : Found by LKH [Keld Helsgaun] Sun Jun 12 20:00:00 2022
TYPE : TOUR
DIMENSION : 100
TOUR_SECTION
1
66
97
38
60
78
68
83
47
55
17
35
81
30
54
92
64
51
76
96
98
29
93
42
32
18
5
50
86
28
58
33
73
56
82
75
20
4
44
91
63
24
49
15
27
79
99
65
61
6
36
11
14
88
40
70
2
23
80
100
53
8
12
39
19
9
34
16
48
84
13
31
45
85
10
26
72
77
89
21
22
57
25
7
59
43
87
41
62
95
52
37
67
71
94
46
69
3
90
74
-1
EOF
